n_trains = 20;
n_tracks = 8;
tracks = [{1},{2},{3},{4},{5},{6, 7, 8, 9, 10},{11, 12, 13, 14, 15},{16, 17, 18, 19, 20}];
arrival_order = [14, 18, 10, 5, 15, 3, 7, 6, 16, 20, 13, 12, 4, 11, 2, 8, 1, 19, 17, 9];
departure_order = [20, 19, 18, 17, 16, 15, 14, 13, 12, 11, 10, 9, 8, 7, 6, 5, 4, 3, 2, 1];
